************************************************************************
file with basedata            : mm15_.bas
initial value random generator: 15622
************************************************************************
projects                      :  1
jobs (incl. supersource/sink ):  12
horizon                       :  80
RESOURCES
  - renewable                 :  2   R
  - nonrenewable              :  2   N
  - doubly constrained        :  0   D
************************************************************************
PROJECT INFORMATION:
pronr.  #jobs rel.date duedate tardcost  MPM-Time
    1     10      0       12        0       12
************************************************************************
PRECEDENCE RELATIONS:
jobnr.    #modes  #successors   successors
   1        1          3           2   3   4
   2        3          3           5   7   8
   3        3          1           6
   4        3          1           6
   5        3          2          10  11
   6        3          3           9  10  11
   7        3          1          10
   8        3          1           9
   9        3          1          12
  10        3          1          12
  11        3          1          12
  12        1          0        
************************************************************************
REQUESTS/DURATIONS:
jobnr. mode duration  R 1  R 2  N 1  N 2
------------------------------------------------------------------------
  1      1     0       0    0    0    0
  2      1     3       7    0    9    9
         2     8       0    2    8    7
         3    10       0    2    7    7
  3      1     1       9    0    6    7
         2     4       0    3    1    5
         3     4       9    0    5    5
  4      1     3       3    0    6    7
         2     7       3    0    5    5
         3    10       0    4    3    5
  5      1     3       0    6   10    1
         2     8       0    4    9    1
         3    10       0    3    9    1
  6      1     3       0    9    6    6
         2     7       9    0    3    4
         3     9       5    0    2    3
  7      1     6       7    0    6    8
         2     8       7    0    5    8
         3    10       6    0    2    7
  8      1     1       0    7    9    5
         2     1       8    0    8    4
         3     5       0    7    8    4
  9      1     1       8    0    8    5
         2     7       0    9    6    4
         3     7       0   10    4    4
 10      1     3       0    6   10    3
         2     4       3    0    7    2
         3     5       0    5    6    1
 11      1     1       8    0    9    9
         2     5       0    9    8    8
         3    10       5    0    8    8
 12      1     0       0    0    0    0
************************************************************************
RESOURCEAVAILABILITIES:
  R 1  R 2  N 1  N 2
   15   14   70   56
************************************************************************
MAXIMAL LAGS:
from  to  type  delay
    1   12   ES      0
    1    2   ES      0
    2   12   ES      0
    1    3   ES      0
    3   12   ES      0
    1    4   ES      0
    4   12   ES      0
    1    5   ES      0
    5   12   ES      0
    1    6   ES      0
    6   12   ES      0
    1    7   ES      0
    7   12   ES      0
    1    8   ES      0
    8   12   ES      0
    1    9   ES      0
    9   12   ES      0
    1   10   ES      0
   10   12   ES      0
    1   11   ES      0
   11   12   ES      0
    1   12   ES      0
    2    5   SS      4
    2    5   SE      0
    2    5   ES      5
    2    5   EE     -9
    2    7   SS     -4
    2    7   SE     12
    2    7   ES     -4
    2    7   EE     10
    2    8   SS      2
    2    8   SE     -6
    2    8   ES      7
    2    8   EE     -3
    3    6   SS     10
    3    6   SE      3
    3    6   ES     -6
    3    6   EE     -9
    4    6   SS     -8
    4    6   SE    -10
    4    6   ES      2
    4    6   EE     -7
    5   10   SS     10
    5   10   SE      2
    5   10   ES    -10
    5   10   EE      9
    5   11   SS     -2
    5   11   SE      9
    5   11   ES     -1
    5   11   EE     10
    6    9   SS    -10
    6    9   SE      5
    6    9   ES      5
    6    9   EE     -3
    6   10   SS     -3
    6   10   SE     -7
    6   10   ES     10
    6   10   EE     10
    6   11   SS     10
    6   11   SE      8
    6   11   ES     -7
    6   11   EE     -1
    7   10   SS      4
    7   10   SE     -5
    7   10   ES     -9
    7   10   EE     -6
    8    9   SS     -8
    8    9   SE     -5
    8    9   ES      3
    8    9   EE    -12
************************************************************************
